p cnf 10 20
-10 9 -7 0
10 -7 -4 0
10 -6 -3 0
10 -6 -2 0
-10 -6 -1 0
10 -3 2 0
-9 8 7 0
9 -7 -1 0
9 -5 -1 0
-9 5 -1 0
-8 7 3 0
-8 6 2 0
8 3 -2 0
7 6 -5 0
7 -6 2 0
-7 -4 3 0
7 4 3 0
-7 -4 -2 0
-6 5 1 0
5 4 3 0
